 Minimize
[ 1.0000000000000000 Z0 * Z8  ]
Subject to
c1: [ 1.0000000000000000 Z0 * Z1  + 1.0000000000000000 Z0 * Z2  + 1.0000000000000000 Z0 * Z3  + 1.0000000000000000 Z0 * Z4  + 1.0000000000000000 Z0 * Z5  + 1.0000000000000000 Z0 * Z6  ] <= 5.000000
c2: [ 1.0000000000000000 Z0 * Z6  + 1.0000000000000000 Z1 * Z1  + 1.0000000000000000 Z2 * Z2  + 1.0000000000000000 Z3 * Z3  ] <= 5.500000
c3: [ 1.0000000000000000 Z0 * Z1  + 1.0000000000000000 Z0 * Z4  ] <= 1.200000
c4: [ 1.0000000000000000 Z0 * Z2  + 1.0000000000000000 Z0 * Z5  ] <= 1.800000
c5: [ 1.0000000000000000 Z0 * Z3  + 1.0000000000000000 Z0 * Z6  ] <= 2.500000
c6: [ 1.0000000000000000 Z0 * Z1  + 1.0000000000000000 Z0 * Z7  ] <= 1.200000
c7: [ 1.0000000000000000 Z0 * Z5  + 1.0000000000000000 Z2 * Z2  ] <= 1.640000
c8: [ 1.0000000000000000 Z0 * Z6  + 1.0000000000000000 Z3 * Z3  ] <= 4.250000
c9: [ 1.0000000000000000 Z0 * Z5  + 1.0000000000000000 Z3 * Z3  ] <= 4.640000
c10: [ -14.0000000000000000 Z0 * Z0  + 2.0000000000000000 Z0 * Z1  + 4.0000000000000000 Z0 * Z2  + 6.0000000000000000 Z0 * Z3  + 1.0000000000000000 Z0 * Z4  + 3.0000000000000000 Z0 * Z5  + 1.0000000000000000 Z0 * Z6  + 0.6931471805599450 Z0 * Z7  + 1.0000000000000000 Z0 * Z8 -1.0000000000000000 Z1 * Z1 -1.0000000000000000 Z2 * Z2 -1.0000000000000000 Z3 * Z3  ] = 6.000000
ac1: Z0 - 1 = 0
Bounds
1 <= Z0 <= 1
0.0000000000000000 <= Z1 <= 10.0000000000000000
0.0000000000000000 <= Z2 <= 10.0000000000000000
0.0000000000000000 <= Z3 <= 10.0000000000000000
0.0000000000000000 <= Z4 <= 1.0000000000000000
0.0000000000000000 <= Z5 <= 1.0000000000000000
0.0000000000000000 <= Z6 <= 1.0000000000000000
0.0000000000000000 <= Z7 <= 1.0000000000000000
-100000000.0000000000000000 <= Z8 <= 100000000.0000000000000000
Binaries
Z4 Z5 Z6 Z7 
End